702 5
10 10 10 10 10 

0 0 0 0 0 0 5 2 54 106 158 210 
0 0 0 0 0 0 1 3 
3 3 3 3 2 5 2 14 4 
10 5 10 9 10 6 1 5 
10 10 6 5 10 9 1 6 
6 10 7 10 4 10 1 7 
7 8 7 8 6 7 2 12 8 
9 6 8 10 10 6 1 9 
8 8 10 9 7 8 1 10 
4 6 9 7 4 9 1 11 
8 8 10 10 7 6 1 13 
2 6 7 10 9 6 1 13 
10 7 5 7 5 8 3 27 18 15 
3 8 7 6 6 5 2 27 15 
4 7 10 10 7 9 1 16 
7 7 10 10 9 10 1 17 
10 7 9 7 8 9 1 19 
8 10 7 7 5 8 2 19 89 
7 10 9 9 10 7 1 20 
9 5 10 5 10 7 3 31 29 21 
3 8 7 8 10 10 2 34 22 
3 6 6 6 7 6 1 23 
1 9 8 7 6 8 1 24 
9 5 9 4 9 10 2 32 25 
1 6 5 8 4 9 1 26 
2 7 10 10 7 8 1 28 
9 10 9 7 9 5 1 28 
6 6 9 8 6 7 1 30 
5 5 7 5 10 9 1 30 
3 7 8 4 7 5 2 36 33 
3 10 3 6 10 9 2 34 33 
10 8 9 9 4 9 3 48 39 37 
10 9 7 7 5 7 2 48 35 
5 10 5 10 9 5 2 48 35 
1 6 8 10 6 10 1 37 
2 10 6 5 10 9 2 48 40 
2 4 7 10 10 6 1 38 
4 8 8 7 3 10 1 40 
6 8 9 10 8 7 1 40 
1 6 4 6 8 9 1 41 
8 8 6 6 4 7 2 52 42 
2 7 10 10 10 7 1 43 
8 10 9 10 5 2 1 44 
2 10 10 4 9 2 1 45 
1 6 7 6 10 8 1 46 
6 8 3 5 10 6 1 47 
2 10 5 9 10 7 2 51 49 
8 8 8 3 9 10 2 51 49 
3 9 10 10 10 8 1 50 
6 5 10 10 4 10 1 53 
10 7 3 3 7 6 1 53 
5 8 6 10 10 9 1 53 
0 0 0 0 0 0 1 702 
0 0 0 0 0 0 1 55 
1 4 4 2 3 5 2 60 56 
6 6 5 8 4 9 1 57 
3 9 6 10 2 6 1 58 
1 6 7 7 7 3 1 59 
1 9 10 9 7 10 2 64 61 
9 6 4 2 8 10 1 61 
7 8 10 10 10 7 1 62 
8 6 4 6 8 9 1 63 
5 9 8 10 8 8 1 65 
4 9 9 7 9 7 1 65 
9 9 10 6 8 7 1 66 
7 8 8 5 9 4 1 67 
5 10 8 8 10 10 2 69 68 
2 8 6 6 7 3 2 74 70 
4 10 10 9 4 8 1 70 
5 9 10 5 5 7 1 71 
5 9 4 10 9 10 2 72 686 
7 5 9 10 10 7 3 79 78 73 
7 10 6 8 8 3 2 81 75 
8 6 10 10 5 7 2 81 76 
8 7 6 7 10 7 1 76 
6 7 8 10 7 6 1 77 
3 4 6 9 9 10 2 82 80 
4 10 9 6 7 8 2 88 80 
2 10 7 6 10 8 1 81 
8 7 10 5 7 6 1 83 
1 10 10 7 10 8 1 83 
10 7 5 10 10 7 2 88 85 
1 10 8 3 5 10 1 84 
6 7 4 7 6 7 1 85 
8 9 6 9 10 7 1 86 
6 8 7 7 7 6 2 89 87 
10 5 8 6 6 3 2 94 90 
2 4 6 5 8 10 2 91 89 
7 10 10 10 3 8 2 94 92 
1 7 7 7 10 8 1 91 
4 9 6 10 10 10 1 92 
9 6 9 8 10 10 1 93 
6 9 3 8 7 8 2 99 95 
1 5 9 8 10 10 2 99 96 
2 10 10 6 7 6 1 96 
5 6 6 8 7 10 1 97 
1 4 10 9 5 10 1 98 
1 6 7 9 7 7 1 100 
3 8 9 6 8 4 1 100 
3 4 8 9 8 10 1 101 
3 4 9 8 7 8 2 104 102 
9 10 9 9 8 10 1 103 
9 10 9 6 5 10 1 105 
1 6 6 9 10 3 1 105 
0 0 0 0 0 0 1 702 
0 0 0 0 0 0 1 107 
6 2 3 7 5 6 2 117 108 
4 7 2 5 6 6 1 109 
10 5 6 5 7 5 1 110 
7 7 7 10 9 8 1 111 
2 10 9 9 5 5 2 116 112 
1 3 10 10 6 10 1 113 
2 9 10 9 9 6 1 114 
6 9 5 10 6 7 1 115 
9 10 5 10 7 8 1 118 
7 9 7 7 6 7 1 118 
10 5 8 7 8 7 1 118 
9 7 6 7 8 9 2 121 119 
9 6 10 4 6 6 1 120 
1 10 10 8 10 6 2 129 122 
6 6 8 8 7 6 1 122 
3 8 9 3 10 10 1 123 
8 6 7 8 7 10 1 124 
10 9 9 10 7 6 3 135 131 125 
10 3 6 3 8 6 2 137 126 
4 10 10 5 8 6 1 127 
3 7 10 10 8 8 1 128 
3 10 5 9 8 10 2 136 130 
9 9 7 5 10 7 2 142 132 
5 2 5 9 6 10 1 132 
3 10 8 3 10 8 1 132 
3 6 5 5 8 10 1 133 
8 10 6 4 7 7 1 134 
7 3 10 10 8 10 2 140 138 
2 10 4 8 10 4 2 137 479 
8 10 10 8 10 7 3 151 142 139 
10 6 8 6 7 9 1 138 
3 7 7 10 10 6 2 151 139 
1 7 10 10 8 6 1 141 
6 3 6 7 5 7 2 151 144 
10 6 10 10 4 9 1 143 
3 10 6 9 10 10 1 143 
9 10 10 7 10 5 1 144 
8 6 8 10 4 9 1 145 
3 10 10 9 6 9 2 156 146 
6 7 8 9 8 5 1 147 
10 6 6 9 8 6 1 148 
3 8 8 9 5 10 1 149 
4 9 7 7 10 9 1 150 
8 7 5 3 4 8 1 152 
3 10 8 10 7 4 1 152 
4 10 10 10 8 5 2 155 153 
5 10 6 9 8 10 1 154 
4 6 7 6 9 8 1 157 
3 10 8 2 7 10 1 157 
2 9 10 7 7 9 1 157 
0 0 0 0 0 0 1 702 
0 0 0 0 0 0 1 159 
5 4 6 7 7 3 1 160 
8 4 10 4 4 6 2 163 161 
5 3 10 10 5 9 1 162 
3 10 10 8 5 7 2 164 522 
2 9 3 9 9 7 1 164 
10 7 5 5 6 10 2 166 165 
4 6 5 6 10 10 1 167 
9 10 7 10 4 9 1 167 
6 9 2 6 10 10 1 168 
9 5 5 9 6 10 1 169 
5 10 7 6 9 5 1 170 
2 8 9 7 6 6 1 171 
7 5 8 10 8 9 2 173 172 
3 9 6 9 3 8 2 176 174 
2 9 9 9 8 10 1 174 
9 6 10 8 5 8 1 175 
8 10 9 4 10 7 1 177 
3 10 8 9 6 4 1 177 
7 8 8 6 3 5 2 180 178 
7 6 10 3 4 8 2 181 179 
9 7 7 10 10 8 2 184 183 
6 10 8 7 5 6 2 184 183 
6 6 9 6 10 5 1 182 
6 7 10 7 6 4 1 183 
7 10 7 10 10 5 2 186 185 
10 7 6 8 10 9 2 189 186 
9 9 4 4 5 7 2 189 188 
5 10 10 7 7 9 1 187 
9 10 6 7 6 10 1 188 
6 10 7 10 10 4 1 190 
7 7 7 10 10 10 1 190 
6 4 9 4 8 10 1 191 
1 8 10 10 8 8 2 194 192 
5 8 7 6 9 10 1 193 
1 6 9 10 7 7 2 197 195 
3 5 9 6 9 8 2 197 196 
1 8 8 7 10 6 1 196 
3 7 4 8 10 7 1 198 
3 3 10 10 4 5 1 198 
3 5 10 10 10 10 2 202 199 
4 10 8 10 10 6 1 200 
1 7 6 4 10 5 1 201 
3 10 9 6 8 10 1 203 
6 8 9 10 10 8 1 203 
10 8 6 6 10 9 1 204 
3 10 6 5 5 8 1 205 
5 5 7 8 10 8 2 208 206 
7 7 4 8 10 7 1 207 
5 6 10 6 7 10 1 209 
4 9 6 10 3 5 1 209 
0 0 0 0 0 0 1 702 
0 0 0 0 0 0 2 211 213 
8 0 0 0 8 0 2 216 212 
9 0 0 0 7 0 2 219 214 
1 0 0 0 5 0 2 216 215 
10 0 0 0 6 0 1 215 
7 0 0 0 10 0 1 217 
10 0 0 0 10 0 1 217 
2 0 0 0 7 0 1 218 
7 0 0 0 10 0 2 220 682 
9 0 0 0 6 0 1 220 
2 0 0 0 6 0 1 221 
0 0 0 0 0 0 5 222 234 276 318 360 
0 0 0 0 0 0 2 223 225 
7 0 0 1 0 0 2 226 224 
6 0 0 7 0 0 2 227 464 
10 0 0 8 0 0 1 226 
8 0 0 10 0 0 1 228 
10 0 0 7 0 0 1 228 
8 0 0 10 0 0 1 229 
9 0 0 8 0 0 1 230 
4 0 0 10 0 0 2 232 231 
4 0 0 9 0 0 1 233 
6 0 0 5 0 0 1 233 
0 0 0 0 0 0 5 402 434 446 478 510 
0 0 0 0 0 0 3 235 242 245 
1 2 4 8 0 4 1 236 
6 8 8 8 0 10 1 237 
6 5 8 7 0 4 1 238 
10 8 6 6 0 8 1 239 
5 9 4 10 0 7 2 240 611 
8 8 7 8 0 6 2 248 241 
8 8 5 10 0 10 1 243 
5 10 8 10 0 7 1 243 
6 8 9 4 0 6 1 244 
5 9 6 6 0 10 1 246 
9 9 7 10 0 9 1 246 
7 5 6 9 0 7 1 247 
9 6 4 5 0 9 1 249 
7 7 5 6 0 10 1 249 
8 4 9 10 0 9 1 250 
8 10 7 5 0 9 2 258 251 
9 10 10 10 0 5 2 264 252 
10 9 8 10 0 10 2 273 253 
8 6 9 10 0 9 1 254 
2 6 10 10 0 8 1 255 
6 9 7 10 0 7 1 256 
8 7 5 7 0 8 2 270 257 
5 9 10 10 0 10 3 272 271 259 
2 8 4 10 0 10 3 274 270 261 
8 7 9 5 0 8 1 260 
3 8 10 7 0 9 1 261 
5 4 7 5 0 4 1 262 
10 8 10 5 0 7 1 263 
3 10 10 7 0 6 1 265 
6 7 6 10 0 7 1 265 
2 5 5 6 0 7 1 266 
9 7 7 10 0 8 1 267 
2 8 10 9 0 5 1 268 
6 10 5 5 0 6 1 269 
1 5 9 5 0 5 1 275 
8 10 8 9 0 5 1 275 
1 9 10 4 0 8 1 275 
10 10 10 4 0 8 1 275 
3 6 8 6 0 6 1 275 
5 6 10 4 0 9 1 275 
0 0 0 0 0 0 1 702 
0 0 0 0 0 0 3 277 280 282 
6 0 3 4 5 4 1 278 
1 0 10 4 7 4 1 279 
8 0 5 10 8 7 2 281 374 
10 0 10 7 10 8 1 281 
8 0 7 8 6 6 1 283 
2 0 4 8 6 5 1 283 
5 0 10 8 4 10 1 284 
3 0 7 5 7 4 1 285 
8 0 5 9 3 10 2 288 286 
3 0 7 6 5 10 1 287 
10 0 5 6 8 4 1 289 
8 0 9 10 10 5 1 289 
1 0 8 10 7 9 1 290 
3 0 8 4 10 9 1 291 
5 0 9 10 8 10 1 292 
4 0 7 7 10 5 2 296 293 
8 0 5 7 6 9 2 300 294 
2 0 10 10 10 10 1 295 
6 0 8 7 4 5 2 316 297 
9 0 9 9 6 9 2 303 298 
10 0 5 9 7 10 1 298 
5 0 6 10 10 10 1 299 
10 0 8 10 9 10 1 301 
9 0 10 7 5 7 1 301 
4 0 10 10 9 6 2 311 302 
8 0 6 6 10 10 2 312 304 
8 0 4 7 9 5 2 311 304 
4 0 8 10 9 6 1 305 
8 0 10 5 9 5 2 315 306 
5 0 2 10 10 6 1 307 
7 0 5 8 10 10 1 308 
6 0 10 5 5 8 1 309 
9 0 10 4 5 10 1 310 
1 0 8 8 9 10 1 313 
9 0 7 7 5 4 1 313 
4 0 8 10 9 8 1 313 
7 0 10 5 7 9 1 314 
4 0 8 7 7 10 1 317 
2 0 10 7 8 7 1 317 
6 0 9 6 8 6 1 317 
0 0 0 0 0 0 1 702 
0 0 0 0 0 0 2 319 320 
6 0 4 3 3 2 2 323 321 
10 0 9 10 7 4 1 321 
1 0 7 5 9 9 1 322 
1 0 6 9 8 4 1 324 
10 0 9 6 6 5 1 324 
9 0 7 10 10 9 1 325 
3 0 6 3 5 8 1 326 
6 0 9 10 10 6 1 327 
2 0 10 7 7 10 2 330 328 
5 0 8 6 8 7 1 329 
1 0 8 8 4 9 1 331 
7 0 8 10 6 5 1 331 
4 0 8 7 8 5 1 332 
6 0 8 7 7 10 1 333 
5 0 7 10 8 10 1 334 
8 0 10 4 9 10 1 335 
9 0 9 10 5 5 3 338 337 336 
8 0 8 7 5 8 2 342 340 
3 0 6 9 7 10 1 339 
2 0 9 9 8 9 2 342 341 
6 0 9 8 10 9 1 340 
10 0 7 10 9 8 1 341 
10 0 8 8 10 8 1 343 
10 0 9 4 10 8 1 343 
3 0 5 10 10 7 3 346 344 697 
6 0 4 9 10 9 1 345 
9 0 2 10 8 6 2 348 347 
8 0 5 6 3 10 2 348 347 
9 0 10 8 9 10 2 351 349 
6 0 8 7 4 4 2 351 350 
4 0 7 5 5 4 1 350 
1 0 9 8 5 7 2 354 352 
3 0 8 10 10 9 2 354 353 
3 0 5 6 10 7 1 353 
4 0 7 5 10 7 1 355 
9 0 10 8 4 9 1 355 
10 0 8 10 10 6 1 356 
4 0 7 4 8 10 1 357 
9 0 6 7 7 9 1 358 
8 0 10 7 8 8 1 359 
0 0 0 0 0 0 1 702 
0 0 0 0 0 0 3 361 374 389 
1 2 5 3 0 4 1 362 
9 8 7 6 0 10 1 363 
10 10 6 9 0 7 1 364 
7 6 10 7 0 10 1 365 
4 9 6 5 0 10 2 382 366 
7 10 9 2 0 5 1 367 
1 9 5 6 0 8 1 368 
8 7 4 8 0 9 1 369 
9 10 10 8 0 6 2 400 370 
1 6 10 10 0 7 1 371 
4 8 5 9 0 6 1 372 
1 7 10 4 0 2 1 373 
8 6 8 7 0 7 2 399 375 
3 4 4 10 0 6 1 375 
6 5 8 9 0 9 3 398 397 376 
5 8 8 7 0 9 1 377 
5 6 10 10 0 10 1 378 
1 9 8 10 0 8 1 379 
4 6 6 9 0 8 1 380 
8 3 10 8 0 6 2 396 381 
7 10 6 6 0 10 3 395 394 383 
7 8 3 7 0 8 2 394 383 
3 5 2 8 0 8 1 384 
9 6 7 7 0 7 1 385 
4 5 9 9 0 10 1 386 
9 7 9 7 0 10 1 387 
9 9 5 7 0 9 2 388 561 
8 9 6 10 0 7 1 390 
3 8 6 7 0 6 1 390 
4 10 10 9 0 6 1 391 
3 7 10 10 0 5 1 392 
9 10 10 7 0 10 1 393 
10 8 5 10 0 6 1 401 
3 8 5 5 0 6 1 401 
1 10 10 9 0 10 1 401 
5 7 10 9 0 7 1 401 
7 10 10 6 0 10 1 401 
2 10 10 7 0 4 1 401 
9 5 8 5 0 5 1 401 
1 9 10 8 0 9 1 401 
0 0 0 0 0 0 1 702 
0 0 0 0 0 0 3 403 431 432 
9 4 1 5 0 0 3 430 404 691 
1 9 5 2 0 0 1 405 
6 8 7 7 0 0 2 429 406 
8 7 10 10 0 0 1 407 
5 6 3 3 0 0 3 428 427 408 
3 10 10 5 0 0 2 426 409 
7 9 5 9 0 0 1 410 
8 10 6 6 0 0 1 411 
1 6 10 8 0 0 1 412 
2 4 8 8 0 0 1 413 
1 6 10 10 0 0 1 414 
2 4 9 6 0 0 2 425 415 
2 10 10 6 0 0 1 416 
8 7 7 10 0 0 1 417 
6 6 10 9 0 0 1 418 
6 6 10 9 0 0 1 419 
7 10 6 10 0 0 1 420 
5 10 10 10 0 0 1 421 
10 10 4 5 0 0 1 422 
5 10 8 9 0 0 1 423 
2 2 10 10 0 0 1 424 
7 10 5 6 0 0 1 433 
6 8 9 10 0 0 1 433 
8 8 7 8 0 0 1 433 
7 5 10 6 0 0 1 433 
3 8 7 3 0 0 1 433 
8 6 9 10 0 0 1 433 
6 8 8 7 0 0 1 433 
6 10 8 10 0 0 1 433 
6 8 3 8 0 0 1 433 
0 0 0 0 0 0 1 702 
0 0 0 0 0 0 1 435 
10 0 0 0 4 0 2 440 436 
8 0 0 0 6 0 2 444 437 
6 0 0 0 9 0 2 443 438 
7 0 0 0 8 0 1 439 
8 0 0 0 6 0 1 441 
4 0 0 0 10 0 1 441 
4 0 0 0 7 0 1 442 
3 0 0 0 10 0 1 445 
3 0 0 0 8 0 2 445 664 
1 0 0 0 7 0 1 445 
0 0 0 0 0 0 5 542 564 586 608 630 
0 0 0 0 0 0 2 447 452 
8 0 3 5 7 0 1 448 
10 0 8 9 10 0 1 449 
1 0 8 9 7 0 2 451 450 
2 0 6 4 10 0 1 453 
5 0 8 10 6 0 1 453 
9 0 8 3 9 0 1 453 
4 0 6 10 10 0 2 457 454 
7 0 9 10 10 0 2 460 455 
1 0 8 3 10 0 1 456 
7 0 6 6 7 0 2 467 458 
8 0 6 10 6 0 3 460 458 682 
9 0 10 10 6 0 1 459 
9 0 7 7 8 0 2 465 461 
7 0 10 5 6 0 2 465 461 
2 0 7 10 6 0 1 462 
10 0 10 9 10 0 3 475 471 463 
8 0 8 8 10 0 1 464 
2 0 10 8 5 0 1 466 
7 0 3 8 7 0 1 466 
8 0 4 2 5 0 1 468 
8 0 8 4 8 0 2 475 471 
3 0 5 7 6 0 1 469 
2 0 10 9 7 0 1 470 
10 0 5 10 6 0 1 472 
10 0 9 10 6 0 1 472 
6 0 10 10 9 0 1 473 
8 0 8 5 8 0 1 474 
9 0 9 6 5 0 1 476 
3 0 6 8 9 0 1 476 
10 0 10 10 6 0 1 477 
0 0 0 0 0 0 1 702 
0 0 0 0 0 0 2 479 485 
1 0 2 3 6 0 1 480 
7 0 8 10 5 0 2 483 481 
8 0 10 5 7 0 1 482 
7 0 8 6 4 0 1 484 
5 0 9 9 8 0 1 484 
10 0 10 8 6 0 2 491 486 
4 0 5 7 8 0 2 491 487 
9 0 8 9 8 0 1 487 
4 0 9 9 7 0 2 501 488 
8 0 10 7 10 0 1 489 
9 0 10 9 8 0 1 490 
6 0 3 9 7 0 3 505 498 493 
10 0 9 10 9 0 1 492 
4 0 7 10 10 0 2 505 494 
7 0 5 10 5 0 1 494 
3 0 6 5 10 0 2 508 495 
1 0 6 7 7 0 1 496 
2 0 7 8 8 0 1 497 
9 0 10 8 7 0 2 499 609 
2 0 10 5 5 0 1 499 
1 0 10 10 10 0 1 500 
7 0 9 7 5 0 1 502 
2 0 4 6 8 0 2 505 504 
6 0 6 4 8 0 1 503 
2 0 8 7 9 0 1 504 
3 0 8 10 9 0 1 506 
2 0 10 9 8 0 1 506 
4 0 8 2 9 0 1 507 
10 0 3 9 8 0 1 509 
6 0 7 7 6 0 1 509 
0 0 0 0 0 0 1 702 
0 0 0 0 0 0 2 511 540 
1 0 3 5 0 3 1 512 
7 0 9 4 0 9 1 513 
8 0 7 5 0 7 1 514 
8 0 9 6 0 6 1 515 
5 0 8 9 0 6 2 539 516 
8 0 8 10 0 8 1 517 
6 0 8 9 0 7 3 538 537 518 
2 0 10 6 0 5 3 536 535 519 
5 0 6 5 0 10 2 529 520 
2 0 8 3 0 7 1 521 
4 0 9 5 0 9 1 522 
10 0 9 6 0 9 1 523 
8 0 9 3 0 10 2 534 524 
1 0 6 9 0 8 1 525 
3 0 7 10 0 6 1 526 
1 0 3 10 0 7 1 527 
6 0 6 9 0 5 1 528 
8 0 5 10 0 7 1 530 
6 0 9 9 0 4 1 530 
8 0 3 5 0 6 1 531 
4 0 10 8 0 10 1 532 
4 0 9 10 0 10 2 533 667 
6 0 8 10 0 9 1 541 
9 0 5 10 0 10 1 541 
8 0 8 10 0 7 1 541 
9 0 7 10 0 8 1 541 
10 0 10 7 0 8 1 541 
8 0 7 9 0 10 1 541 
6 0 9 5 0 9 1 541 
7 0 10 8 0 5 1 541 
0 0 0 0 0 0 1 702 
0 0 0 0 0 0 1 543 
8 0 0 3 3 0 2 551 544 
7 0 0 6 6 0 1 545 
3 0 0 9 6 0 2 552 546 
10 0 0 9 9 0 1 547 
4 0 0 10 10 0 1 548 
5 0 0 8 8 0 2 555 549 
2 0 0 6 10 0 2 550 688 
9 0 0 2 8 0 2 561 553 
7 0 0 10 5 0 2 561 553 
2 0 0 7 7 0 2 556 555 
9 0 0 10 8 0 1 554 
4 0 0 10 5 0 2 559 556 
9 0 0 6 10 0 2 561 557 
6 0 0 5 10 0 1 557 
6 0 0 9 10 0 1 558 
4 0 0 9 4 0 1 560 
1 0 0 6 8 0 1 560 
7 0 0 8 9 0 1 562 
10 0 0 8 8 0 1 562 
5 0 0 9 6 0 1 563 
0 0 0 0 0 0 1 702 
0 0 0 0 0 0 1 565 
5 0 0 0 2 8 2 574 566 
4 0 0 0 8 7 1 567 
8 0 0 0 4 9 2 576 568 
3 0 0 0 10 3 1 569 
10 0 0 0 9 4 2 577 570 
9 0 0 0 7 10 1 571 
1 0 0 0 6 9 1 572 
6 0 0 0 8 9 2 584 573 
3 0 0 0 9 7 1 575 
4 0 0 0 8 6 1 575 
7 0 0 0 10 5 2 582 578 
5 0 0 0 5 9 2 579 577 
10 0 0 0 9 10 2 584 580 
8 0 0 0 9 9 1 579 
2 0 0 0 6 8 2 580 660 
4 0 0 0 8 7 1 581 
3 0 0 0 10 6 1 583 
7 0 0 0 8 7 1 583 
5 0 0 0 4 10 1 585 
4 0 0 0 10 7 1 585 
0 0 0 0 0 0 1 702 
0 0 0 0 0 0 2 587 645 
3 5 0 0 4 0 2 592 588 
3 6 0 0 4 0 2 596 589 
1 5 0 0 4 0 2 598 590 
2 5 0 0 10 0 1 591 
2 8 0 0 9 0 2 601 593 
4 10 0 0 6 0 3 601 598 595 
7 8 0 0 10 0 1 594 
2 8 0 0 7 0 1 595 
2 6 0 0 9 0 2 599 597 
6 7 0 0 10 0 2 600 598 
6 8 0 0 5 0 1 600 
2 8 0 0 4 0 1 599 
7 9 0 0 10 0 1 602 
3 9 0 0 7 0 1 602 
6 8 0 0 9 0 1 602 
7 10 0 0 9 0 1 603 
5 10 0 0 6 0 1 604 
5 8 0 0 8 0 1 605 
7 7 0 0 10 0 1 606 
1 5 0 0 9 0 1 607 
0 0 0 0 0 0 1 702 
0 0 0 0 0 0 3 609 614 625 
4 0 0 5 0 3 1 610 
2 0 0 6 0 6 1 611 
2 0 0 9 0 9 2 612 656 
2 0 0 7 0 8 2 618 613 
1 0 0 10 0 10 1 615 
7 0 0 9 0 8 1 615 
1 0 0 5 0 9 2 624 616 
10 0 0 6 0 5 1 617 
7 0 0 10 0 6 2 628 619 
2 0 0 6 0 2 2 628 619 
4 0 0 10 0 6 1 620 
3 0 0 4 0 9 1 621 
1 0 0 5 0 9 1 622 
8 0 0 5 0 7 1 623 
8 0 0 10 0 7 1 626 
10 0 0 7 0 9 1 626 
1 0 0 10 0 9 1 626 
1 0 0 7 0 9 1 627 
6 0 0 9 0 10 1 629 
7 0 0 10 0 9 1 629 
0 0 0 0 0 0 1 702 
0 0 0 0 0 0 2 631 637 
5 0 0 0 3 0 1 632 
7 0 0 0 8 0 2 639 633 
4 0 0 0 6 0 1 634 
5 0 0 0 10 0 2 635 657 
3 0 0 0 10 0 1 636 
8 0 0 0 4 0 1 638 
6 0 0 0 7 0 1 640 
9 0 0 0 10 0 1 641 
2 0 0 0 10 0 1 641 
10 0 0 0 7 0 1 641 
0 0 0 0 0 0 5 642 654 666 678 690 
0 0 0 0 0 0 2 643 645 
2 4 0 0 0 0 2 646 644 
9 8 0 0 0 0 2 652 647 
6 7 0 0 0 0 1 646 
8 10 0 0 0 0 1 647 
1 9 0 0 0 0 1 648 
4 9 0 0 0 0 2 649 680 
9 6 0 0 0 0 1 650 
2 5 0 0 0 0 1 651 
2 10 0 0 0 0 1 653 
1 7 0 0 0 0 1 653 
0 0 0 0 0 0 1 702 
0 0 0 0 0 0 2 655 658 
7 0 0 4 0 0 1 656 
2 0 0 6 0 0 1 657 
7 0 0 6 0 0 3 660 659 684 
4 0 0 6 0 0 1 659 
4 0 0 4 0 0 1 661 
9 0 0 10 0 0 1 662 
10 0 0 9 0 0 1 663 
7 0 0 10 0 0 1 663 
3 0 0 10 0 0 1 664 
7 0 0 10 0 0 1 665 
0 0 0 0 0 0 1 702 
0 0 0 0 0 0 2 667 668 
8 7 0 0 0 0 1 669 
6 2 0 0 0 0 1 669 
3 6 0 0 0 0 1 670 
4 10 0 0 0 0 2 674 671 
1 6 0 0 0 0 1 672 
4 9 0 0 0 0 2 673 697 
5 8 0 0 0 0 2 676 675 
5 9 0 0 0 0 2 676 675 
5 8 0 0 0 0 1 677 
10 10 0 0 0 0 1 677 
0 0 0 0 0 0 1 702 
0 0 0 0 0 0 2 679 688 
3 5 0 0 0 0 1 680 
8 5 0 0 0 0 1 681 
5 5 0 0 0 0 2 685 682 
5 10 0 0 0 0 1 683 
7 10 0 0 0 0 1 684 
1 9 0 0 0 0 1 686 
10 6 0 0 0 0 1 687 
5 9 0 0 0 0 2 689 695 
8 8 0 0 0 0 1 689 
5 8 0 0 0 0 1 689 
0 0 0 0 0 0 1 702 
0 0 0 0 0 0 2 691 692 
4 5 0 0 0 0 1 693 
9 10 0 0 0 0 1 693 
7 4 0 0 0 0 2 698 694 
2 4 0 0 0 0 1 695 
8 9 0 0 0 0 1 696 
8 9 0 0 0 0 1 697 
8 7 0 0 0 0 2 700 699 
1 10 0 0 0 0 2 700 699 
9 10 0 0 0 0 1 701 
8 7 0 0 0 0 1 701 
0 0 0 0 0 0 1 702 
0 0 0 0 0 0 0 
